6138
6491
7981
1103
3550
10156
9655
4632
6878
2130
7640
2609
9445
2580
6093
9130
1300
4940
5615
3894
6702
6180
4160
9959
3995
8086
1803
4250
8946
8486
3703
9118
3686
5566
1899
402
9767
5527
903
2767
9522
8317
4844
6351
1458
6823
5884
7273
6752
2507
9501
